NAME : portcgen-30-24
COMMENT : portcgen N=30, seed=24
TYPE : TSP
DIMENSION : 30
EDGE_WEIGHT_TYPE : EUC_2D
NODE_COORD_SECTION
1 -169461 219803
2 220592 89694
3 -146316 42528
4 587594 -41208
5 -58431 53487
6 -64210 219058
7 21811 125079
8 123803 -50194
9 68102 203131
10 21425 206100
11 -103849 -350723
12 146801 -273651
13 -135315 -94168
14 149585 213550
15 -168606 -9058
16 -11566 93535
17 33951 264250
18 78946 -394954
19 244853 -13919
20 -29235 -7820
21 63188 -3147
22 -30002 -12592
23 -32775 307247
24 -73751 -206513
25 -6858 153053
26 -279719 -261632
27 -183235 -35036
28 -223205 99482
29 -60603 -156749
30 112095 -125988
